117
0 96 56 90 72 76 18 10 116 4 
88 102 114 80 20 91 65 93 22 41 
11 103 61 31 3 12 43 77 2 97 
1 84 62 50 8 106 55 27 86 112 
79 113 51 52 95 111 9 107 110 71 
17 45 35 64 109 48 101 46 83 54 
78 59 30 44 25 69 82 94 105 26 
7 14 108 104 60 32 75 23 21 68 
66 49 87 42 5 53 100 6 47 67 
13 85 40 29 57 16 89 15 38 37 
115 33 34 19 28 99 24 81 74 58 
39 63 92 70 36 73 98 
